
;this file is automatically generated: Tue Feb 23 13:38:02 CST 2021

;declarations generated

(declare-fun oclExcludes ( Int Int) Bool)
(declare-fun Cardinality ( Int) Int)
(declare-fun obj_96d63d76_3a0f_42ed_a04c_e5445c042610 ( Int) Int)
(declare-fun class30_Class30BoolAttr1 ( Int) Bool)
(declare-fun oclSelect ( Int Bool) Int)
(declare-fun type_3bdf746b_7fee_4480_9d64_eeb0ddee8491_Class13 ( Int) Bool)
(declare-fun type_3bdf746b_7fee_4480_9d64_eeb0ddee8491_Class14 ( Int) Bool)
(declare-fun type_3bdf746b_7fee_4480_9d64_eeb0ddee8491_Class15 ( Int) Bool)
(declare-fun type_3bdf746b_7fee_4480_9d64_eeb0ddee8491_Class16 ( Int) Bool)
(declare-fun type_3bdf746b_7fee_4480_9d64_eeb0ddee8491_Class10 ( Int) Bool)
(declare-fun type_3bdf746b_7fee_4480_9d64_eeb0ddee8491_Class11 ( Int) Bool)
(declare-fun type_3bdf746b_7fee_4480_9d64_eeb0ddee8491_Class12 ( Int) Bool)
(declare-fun type_3bdf746b_7fee_4480_9d64_eeb0ddee8491_Class24 ( Int) Bool)
(declare-fun type_3bdf746b_7fee_4480_9d64_eeb0ddee8491_Class25 ( Int) Bool)
(declare-fun type_3bdf746b_7fee_4480_9d64_eeb0ddee8491_Class26 ( Int) Bool)
(declare-fun type_3bdf746b_7fee_4480_9d64_eeb0ddee8491_Class27 ( Int) Bool)
(declare-fun type_3bdf746b_7fee_4480_9d64_eeb0ddee8491_Class20 ( Int) Bool)
(declare-fun type_3bdf746b_7fee_4480_9d64_eeb0ddee8491_Class21 ( Int) Bool)
(declare-fun type_3bdf746b_7fee_4480_9d64_eeb0ddee8491_Class22 ( Int) Bool)
(declare-fun type_3bdf746b_7fee_4480_9d64_eeb0ddee8491_Class23 ( Int) Bool)
(declare-fun Enum0 ( Int) Int)
(declare-fun Enum1 ( Int) Int)
(declare-fun Enum2 ( Int) Int)
(declare-fun type_3bdf746b_7fee_4480_9d64_eeb0ddee8491_Class17 ( Int) Bool)
(declare-fun type_3bdf746b_7fee_4480_9d64_eeb0ddee8491_Class18 ( Int) Bool)
(declare-fun type_3bdf746b_7fee_4480_9d64_eeb0ddee8491_Class19 ( Int) Bool)
(declare-fun type_3bdf746b_7fee_4480_9d64_eeb0ddee8491_Class35 ( Int) Bool)
(declare-fun type_3bdf746b_7fee_4480_9d64_eeb0ddee8491_Class36 ( Int) Bool)
(declare-fun type_3bdf746b_7fee_4480_9d64_eeb0ddee8491_Class37 ( Int) Bool)
(declare-fun type_3bdf746b_7fee_4480_9d64_eeb0ddee8491_Class38 ( Int) Bool)
(declare-fun type_3bdf746b_7fee_4480_9d64_eeb0ddee8491_Class31 ( Int) Bool)
(declare-fun type_3bdf746b_7fee_4480_9d64_eeb0ddee8491_Class32 ( Int) Bool)
(declare-fun class30_Class30IntAttr4 ( Int) Int)
(declare-fun type_3bdf746b_7fee_4480_9d64_eeb0ddee8491_Class33 ( Int) Bool)
(declare-fun class30_Class30IntAttr3 ( Int) Int)
(declare-fun type_3bdf746b_7fee_4480_9d64_eeb0ddee8491_Class34 ( Int) Bool)
(declare-fun type_3bdf746b_7fee_4480_9d64_eeb0ddee8491_Class30 ( Int) Bool)
(declare-fun type_3bdf746b_7fee_4480_9d64_eeb0ddee8491_Class0 ( Int) Bool)
(declare-fun type_3bdf746b_7fee_4480_9d64_eeb0ddee8491_Class1 ( Int) Bool)
(declare-fun container_ ( Int) Int)
(declare-fun type_3bdf746b_7fee_4480_9d64_eeb0ddee8491_Class8 ( Int) Bool)
(declare-fun type_3bdf746b_7fee_4480_9d64_eeb0ddee8491_Class9 ( Int) Bool)
(declare-fun type_3bdf746b_7fee_4480_9d64_eeb0ddee8491_Class6 ( Int) Bool)
(declare-fun type_3bdf746b_7fee_4480_9d64_eeb0ddee8491_Class7 ( Int) Bool)
(declare-fun type_3bdf746b_7fee_4480_9d64_eeb0ddee8491_Class4 ( Int) Bool)
(declare-fun type_3bdf746b_7fee_4480_9d64_eeb0ddee8491_Class28 ( Int) Bool)
(declare-fun type_3bdf746b_7fee_4480_9d64_eeb0ddee8491_Class29 ( Int) Bool)
(declare-fun type_3bdf746b_7fee_4480_9d64_eeb0ddee8491_Class5 ( Int) Bool)
(declare-fun type_3bdf746b_7fee_4480_9d64_eeb0ddee8491_Class2 ( Int) Bool)
(declare-fun type_3bdf746b_7fee_4480_9d64_eeb0ddee8491_Class3 ( Int) Bool)
(declare-fun type_3bdf746b_7fee_4480_9d64_eeb0ddee8491_Class42 ( Int) Bool)
(declare-fun type_3bdf746b_7fee_4480_9d64_eeb0ddee8491_Class43 ( Int) Bool)
(declare-fun type_3bdf746b_7fee_4480_9d64_eeb0ddee8491_Class44 ( Int) Bool)
(declare-fun type_3bdf746b_7fee_4480_9d64_eeb0ddee8491_Class45 ( Int) Bool)
(declare-fun type_3bdf746b_7fee_4480_9d64_eeb0ddee8491_Class40 ( Int) Bool)
(declare-fun type_3bdf746b_7fee_4480_9d64_eeb0ddee8491_Class41 ( Int) Bool)
(declare-fun type_3bdf746b_7fee_4480_9d64_eeb0ddee8491_Class39 ( Int) Bool)
(declare-fun oclIncludes ( Int Int) Bool)
(declare-fun ObjAt ( Int Int) Int)

;formula(s) generated
(assert (! (exists ((c1 Int)) (and (and ( type_3bdf746b_7fee_4480_9d64_eeb0ddee8491_Class30 c1 )  ( type_3bdf746b_7fee_4480_9d64_eeb0ddee8491_Class2 c1 ) ) (not (= ( class30_Class30IntAttr3 ( obj_96d63d76_3a0f_42ed_a04c_e5445c042610 c1 )  )  12) ))):named l0))
(assert (! (forall ((v Int)) (=> (and ( type_3bdf746b_7fee_4480_9d64_eeb0ddee8491_Class30 v )  ( type_3bdf746b_7fee_4480_9d64_eeb0ddee8491_Class2 v ) ) (or (>= ( class30_Class30IntAttr4 ( obj_96d63d76_3a0f_42ed_a04c_e5445c042610 v )  )  5) (or (forall ((v Int)) (=> (and ( type_3bdf746b_7fee_4480_9d64_eeb0ddee8491_Class30 v )  ( type_3bdf746b_7fee_4480_9d64_eeb0ddee8491_Class2 v ) ) (not ( class30_Class30BoolAttr1 ( obj_96d63d76_3a0f_42ed_a04c_e5445c042610 v )  )  ))) (forall ((v Int)) (=> (and ( type_3bdf746b_7fee_4480_9d64_eeb0ddee8491_Class30 v )  ( type_3bdf746b_7fee_4480_9d64_eeb0ddee8491_Class2 v ) ) (< ( class30_Class30IntAttr3 ( obj_96d63d76_3a0f_42ed_a04c_e5445c042610 v )  )  7))))))):named l1))
(assert (! (forall ((v Int)) (=> (and ( type_3bdf746b_7fee_4480_9d64_eeb0ddee8491_Class30 v )  ( type_3bdf746b_7fee_4480_9d64_eeb0ddee8491_Class2 v ) ) (< ( class30_Class30IntAttr3 ( obj_96d63d76_3a0f_42ed_a04c_e5445c042610 v )  )  0))):named l2))
(assert (! (exists ((o Int)) (and (and (and ( type_3bdf746b_7fee_4480_9d64_eeb0ddee8491_Class0 ( obj_96d63d76_3a0f_42ed_a04c_e5445c042610 o )  )  ( type_3bdf746b_7fee_4480_9d64_eeb0ddee8491_Class22 ( obj_96d63d76_3a0f_42ed_a04c_e5445c042610 o )  ) ) ( type_3bdf746b_7fee_4480_9d64_eeb0ddee8491_Class35 ( obj_96d63d76_3a0f_42ed_a04c_e5445c042610 o )  ) ) ( type_3bdf746b_7fee_4480_9d64_eeb0ddee8491_Class2 ( obj_96d63d76_3a0f_42ed_a04c_e5445c042610 o )  ) )):named c0))
(assert (! (exists ((o Int)) ( type_3bdf746b_7fee_4480_9d64_eeb0ddee8491_Class1 ( obj_96d63d76_3a0f_42ed_a04c_e5445c042610 o )  ) ):named c1))
(assert (! (exists ((o Int)) (and (and (and (and ( type_3bdf746b_7fee_4480_9d64_eeb0ddee8491_Class10 ( obj_96d63d76_3a0f_42ed_a04c_e5445c042610 o )  )  ( type_3bdf746b_7fee_4480_9d64_eeb0ddee8491_Class16 ( obj_96d63d76_3a0f_42ed_a04c_e5445c042610 o )  ) ) ( type_3bdf746b_7fee_4480_9d64_eeb0ddee8491_Class15 ( obj_96d63d76_3a0f_42ed_a04c_e5445c042610 o )  ) ) ( type_3bdf746b_7fee_4480_9d64_eeb0ddee8491_Class41 ( obj_96d63d76_3a0f_42ed_a04c_e5445c042610 o )  ) ) ( type_3bdf746b_7fee_4480_9d64_eeb0ddee8491_Class2 ( obj_96d63d76_3a0f_42ed_a04c_e5445c042610 o )  ) )):named c2))
(assert (! (exists ((o Int)) ( type_3bdf746b_7fee_4480_9d64_eeb0ddee8491_Class11 ( obj_96d63d76_3a0f_42ed_a04c_e5445c042610 o )  ) ):named c3))
(assert (! (exists ((o Int)) (and (and (and (and ( type_3bdf746b_7fee_4480_9d64_eeb0ddee8491_Class12 ( obj_96d63d76_3a0f_42ed_a04c_e5445c042610 o )  )  ( type_3bdf746b_7fee_4480_9d64_eeb0ddee8491_Class22 ( obj_96d63d76_3a0f_42ed_a04c_e5445c042610 o )  ) ) ( type_3bdf746b_7fee_4480_9d64_eeb0ddee8491_Class35 ( obj_96d63d76_3a0f_42ed_a04c_e5445c042610 o )  ) ) ( type_3bdf746b_7fee_4480_9d64_eeb0ddee8491_Class0 ( obj_96d63d76_3a0f_42ed_a04c_e5445c042610 o )  ) ) ( type_3bdf746b_7fee_4480_9d64_eeb0ddee8491_Class2 ( obj_96d63d76_3a0f_42ed_a04c_e5445c042610 o )  ) )):named c4))
(assert (! (exists ((o Int)) (and (and (and ( type_3bdf746b_7fee_4480_9d64_eeb0ddee8491_Class13 ( obj_96d63d76_3a0f_42ed_a04c_e5445c042610 o )  )  ( type_3bdf746b_7fee_4480_9d64_eeb0ddee8491_Class16 ( obj_96d63d76_3a0f_42ed_a04c_e5445c042610 o )  ) ) ( type_3bdf746b_7fee_4480_9d64_eeb0ddee8491_Class15 ( obj_96d63d76_3a0f_42ed_a04c_e5445c042610 o )  ) ) ( type_3bdf746b_7fee_4480_9d64_eeb0ddee8491_Class2 ( obj_96d63d76_3a0f_42ed_a04c_e5445c042610 o )  ) )):named c5))
(assert (! (exists ((o Int)) (and (and (and (and (and (and (and ( type_3bdf746b_7fee_4480_9d64_eeb0ddee8491_Class14 ( obj_96d63d76_3a0f_42ed_a04c_e5445c042610 o )  )  ( type_3bdf746b_7fee_4480_9d64_eeb0ddee8491_Class33 ( obj_96d63d76_3a0f_42ed_a04c_e5445c042610 o )  ) ) ( type_3bdf746b_7fee_4480_9d64_eeb0ddee8491_Class13 ( obj_96d63d76_3a0f_42ed_a04c_e5445c042610 o )  ) ) ( type_3bdf746b_7fee_4480_9d64_eeb0ddee8491_Class16 ( obj_96d63d76_3a0f_42ed_a04c_e5445c042610 o )  ) ) ( type_3bdf746b_7fee_4480_9d64_eeb0ddee8491_Class15 ( obj_96d63d76_3a0f_42ed_a04c_e5445c042610 o )  ) ) ( type_3bdf746b_7fee_4480_9d64_eeb0ddee8491_Class4 ( obj_96d63d76_3a0f_42ed_a04c_e5445c042610 o )  ) ) ( type_3bdf746b_7fee_4480_9d64_eeb0ddee8491_Class41 ( obj_96d63d76_3a0f_42ed_a04c_e5445c042610 o )  ) ) ( type_3bdf746b_7fee_4480_9d64_eeb0ddee8491_Class2 ( obj_96d63d76_3a0f_42ed_a04c_e5445c042610 o )  ) )):named c6))
(assert (! (exists ((o Int)) (and ( type_3bdf746b_7fee_4480_9d64_eeb0ddee8491_Class15 ( obj_96d63d76_3a0f_42ed_a04c_e5445c042610 o )  )  ( type_3bdf746b_7fee_4480_9d64_eeb0ddee8491_Class2 ( obj_96d63d76_3a0f_42ed_a04c_e5445c042610 o )  ) )):named c7))
(assert (! (exists ((o Int)) (and (and ( type_3bdf746b_7fee_4480_9d64_eeb0ddee8491_Class16 ( obj_96d63d76_3a0f_42ed_a04c_e5445c042610 o )  )  ( type_3bdf746b_7fee_4480_9d64_eeb0ddee8491_Class15 ( obj_96d63d76_3a0f_42ed_a04c_e5445c042610 o )  ) ) ( type_3bdf746b_7fee_4480_9d64_eeb0ddee8491_Class2 ( obj_96d63d76_3a0f_42ed_a04c_e5445c042610 o )  ) )):named c8))
(assert (! (exists ((o Int)) (and (and (and (and ( type_3bdf746b_7fee_4480_9d64_eeb0ddee8491_Class17 ( obj_96d63d76_3a0f_42ed_a04c_e5445c042610 o )  )  ( type_3bdf746b_7fee_4480_9d64_eeb0ddee8491_Class24 ( obj_96d63d76_3a0f_42ed_a04c_e5445c042610 o )  ) ) ( type_3bdf746b_7fee_4480_9d64_eeb0ddee8491_Class26 ( obj_96d63d76_3a0f_42ed_a04c_e5445c042610 o )  ) ) ( type_3bdf746b_7fee_4480_9d64_eeb0ddee8491_Class32 ( obj_96d63d76_3a0f_42ed_a04c_e5445c042610 o )  ) ) ( type_3bdf746b_7fee_4480_9d64_eeb0ddee8491_Class2 ( obj_96d63d76_3a0f_42ed_a04c_e5445c042610 o )  ) )):named c9))
(assert (! (exists ((o Int)) ( type_3bdf746b_7fee_4480_9d64_eeb0ddee8491_Class18 ( obj_96d63d76_3a0f_42ed_a04c_e5445c042610 o )  ) ):named c10))
(assert (! (exists ((o Int)) ( type_3bdf746b_7fee_4480_9d64_eeb0ddee8491_Class19 ( obj_96d63d76_3a0f_42ed_a04c_e5445c042610 o )  ) ):named c11))
(assert (! (exists ((o Int)) ( type_3bdf746b_7fee_4480_9d64_eeb0ddee8491_Class2 ( obj_96d63d76_3a0f_42ed_a04c_e5445c042610 o )  ) ):named c12))
(assert (! (exists ((o Int)) (and (and ( type_3bdf746b_7fee_4480_9d64_eeb0ddee8491_Class20 ( obj_96d63d76_3a0f_42ed_a04c_e5445c042610 o )  )  ( type_3bdf746b_7fee_4480_9d64_eeb0ddee8491_Class21 ( obj_96d63d76_3a0f_42ed_a04c_e5445c042610 o )  ) ) ( type_3bdf746b_7fee_4480_9d64_eeb0ddee8491_Class2 ( obj_96d63d76_3a0f_42ed_a04c_e5445c042610 o )  ) )):named c13))
(assert (! (exists ((o Int)) (and ( type_3bdf746b_7fee_4480_9d64_eeb0ddee8491_Class21 ( obj_96d63d76_3a0f_42ed_a04c_e5445c042610 o )  )  ( type_3bdf746b_7fee_4480_9d64_eeb0ddee8491_Class2 ( obj_96d63d76_3a0f_42ed_a04c_e5445c042610 o )  ) )):named c14))
(assert (! (exists ((o Int)) (and (and ( type_3bdf746b_7fee_4480_9d64_eeb0ddee8491_Class22 ( obj_96d63d76_3a0f_42ed_a04c_e5445c042610 o )  )  ( type_3bdf746b_7fee_4480_9d64_eeb0ddee8491_Class35 ( obj_96d63d76_3a0f_42ed_a04c_e5445c042610 o )  ) ) ( type_3bdf746b_7fee_4480_9d64_eeb0ddee8491_Class2 ( obj_96d63d76_3a0f_42ed_a04c_e5445c042610 o )  ) )):named c15))
(assert (! (exists ((o Int)) (and (and (and (and (and (and ( type_3bdf746b_7fee_4480_9d64_eeb0ddee8491_Class23 ( obj_96d63d76_3a0f_42ed_a04c_e5445c042610 o )  )  ( type_3bdf746b_7fee_4480_9d64_eeb0ddee8491_Class12 ( obj_96d63d76_3a0f_42ed_a04c_e5445c042610 o )  ) ) ( type_3bdf746b_7fee_4480_9d64_eeb0ddee8491_Class22 ( obj_96d63d76_3a0f_42ed_a04c_e5445c042610 o )  ) ) ( type_3bdf746b_7fee_4480_9d64_eeb0ddee8491_Class25 ( obj_96d63d76_3a0f_42ed_a04c_e5445c042610 o )  ) ) ( type_3bdf746b_7fee_4480_9d64_eeb0ddee8491_Class35 ( obj_96d63d76_3a0f_42ed_a04c_e5445c042610 o )  ) ) ( type_3bdf746b_7fee_4480_9d64_eeb0ddee8491_Class0 ( obj_96d63d76_3a0f_42ed_a04c_e5445c042610 o )  ) ) ( type_3bdf746b_7fee_4480_9d64_eeb0ddee8491_Class2 ( obj_96d63d76_3a0f_42ed_a04c_e5445c042610 o )  ) )):named c16))
(assert (! (exists ((o Int)) (and (and (and ( type_3bdf746b_7fee_4480_9d64_eeb0ddee8491_Class24 ( obj_96d63d76_3a0f_42ed_a04c_e5445c042610 o )  )  ( type_3bdf746b_7fee_4480_9d64_eeb0ddee8491_Class26 ( obj_96d63d76_3a0f_42ed_a04c_e5445c042610 o )  ) ) ( type_3bdf746b_7fee_4480_9d64_eeb0ddee8491_Class32 ( obj_96d63d76_3a0f_42ed_a04c_e5445c042610 o )  ) ) ( type_3bdf746b_7fee_4480_9d64_eeb0ddee8491_Class2 ( obj_96d63d76_3a0f_42ed_a04c_e5445c042610 o )  ) )):named c17))
(assert (! (exists ((o Int)) (and (and (and (and (and ( type_3bdf746b_7fee_4480_9d64_eeb0ddee8491_Class25 ( obj_96d63d76_3a0f_42ed_a04c_e5445c042610 o )  )  ( type_3bdf746b_7fee_4480_9d64_eeb0ddee8491_Class12 ( obj_96d63d76_3a0f_42ed_a04c_e5445c042610 o )  ) ) ( type_3bdf746b_7fee_4480_9d64_eeb0ddee8491_Class22 ( obj_96d63d76_3a0f_42ed_a04c_e5445c042610 o )  ) ) ( type_3bdf746b_7fee_4480_9d64_eeb0ddee8491_Class35 ( obj_96d63d76_3a0f_42ed_a04c_e5445c042610 o )  ) ) ( type_3bdf746b_7fee_4480_9d64_eeb0ddee8491_Class0 ( obj_96d63d76_3a0f_42ed_a04c_e5445c042610 o )  ) ) ( type_3bdf746b_7fee_4480_9d64_eeb0ddee8491_Class2 ( obj_96d63d76_3a0f_42ed_a04c_e5445c042610 o )  ) )):named c18))
(assert (! (exists ((o Int)) (and (and ( type_3bdf746b_7fee_4480_9d64_eeb0ddee8491_Class26 ( obj_96d63d76_3a0f_42ed_a04c_e5445c042610 o )  )  ( type_3bdf746b_7fee_4480_9d64_eeb0ddee8491_Class32 ( obj_96d63d76_3a0f_42ed_a04c_e5445c042610 o )  ) ) ( type_3bdf746b_7fee_4480_9d64_eeb0ddee8491_Class2 ( obj_96d63d76_3a0f_42ed_a04c_e5445c042610 o )  ) )):named c19))
(assert (! (exists ((o Int)) (and ( type_3bdf746b_7fee_4480_9d64_eeb0ddee8491_Class27 ( obj_96d63d76_3a0f_42ed_a04c_e5445c042610 o )  )  ( type_3bdf746b_7fee_4480_9d64_eeb0ddee8491_Class2 ( obj_96d63d76_3a0f_42ed_a04c_e5445c042610 o )  ) )):named c20))
(assert (! (exists ((o Int)) ( type_3bdf746b_7fee_4480_9d64_eeb0ddee8491_Class28 ( obj_96d63d76_3a0f_42ed_a04c_e5445c042610 o )  ) ):named c21))
(assert (! (exists ((o Int)) ( type_3bdf746b_7fee_4480_9d64_eeb0ddee8491_Class29 ( obj_96d63d76_3a0f_42ed_a04c_e5445c042610 o )  ) ):named c22))
(assert (! (exists ((o Int)) ( type_3bdf746b_7fee_4480_9d64_eeb0ddee8491_Class3 ( obj_96d63d76_3a0f_42ed_a04c_e5445c042610 o )  ) ):named c23))
(assert (! (exists ((o Int)) (and ( type_3bdf746b_7fee_4480_9d64_eeb0ddee8491_Class30 ( obj_96d63d76_3a0f_42ed_a04c_e5445c042610 o )  )  ( type_3bdf746b_7fee_4480_9d64_eeb0ddee8491_Class2 ( obj_96d63d76_3a0f_42ed_a04c_e5445c042610 o )  ) )):named c24))
(assert (! (exists ((o Int)) (and (and (and (and ( type_3bdf746b_7fee_4480_9d64_eeb0ddee8491_Class31 ( obj_96d63d76_3a0f_42ed_a04c_e5445c042610 o )  )  ( type_3bdf746b_7fee_4480_9d64_eeb0ddee8491_Class16 ( obj_96d63d76_3a0f_42ed_a04c_e5445c042610 o )  ) ) ( type_3bdf746b_7fee_4480_9d64_eeb0ddee8491_Class15 ( obj_96d63d76_3a0f_42ed_a04c_e5445c042610 o )  ) ) ( type_3bdf746b_7fee_4480_9d64_eeb0ddee8491_Class41 ( obj_96d63d76_3a0f_42ed_a04c_e5445c042610 o )  ) ) ( type_3bdf746b_7fee_4480_9d64_eeb0ddee8491_Class2 ( obj_96d63d76_3a0f_42ed_a04c_e5445c042610 o )  ) )):named c25))
(assert (! (exists ((o Int)) (and ( type_3bdf746b_7fee_4480_9d64_eeb0ddee8491_Class32 ( obj_96d63d76_3a0f_42ed_a04c_e5445c042610 o )  )  ( type_3bdf746b_7fee_4480_9d64_eeb0ddee8491_Class2 ( obj_96d63d76_3a0f_42ed_a04c_e5445c042610 o )  ) )):named c26))
(assert (! (exists ((o Int)) (and (and (and (and (and ( type_3bdf746b_7fee_4480_9d64_eeb0ddee8491_Class33 ( obj_96d63d76_3a0f_42ed_a04c_e5445c042610 o )  )  ( type_3bdf746b_7fee_4480_9d64_eeb0ddee8491_Class13 ( obj_96d63d76_3a0f_42ed_a04c_e5445c042610 o )  ) ) ( type_3bdf746b_7fee_4480_9d64_eeb0ddee8491_Class16 ( obj_96d63d76_3a0f_42ed_a04c_e5445c042610 o )  ) ) ( type_3bdf746b_7fee_4480_9d64_eeb0ddee8491_Class15 ( obj_96d63d76_3a0f_42ed_a04c_e5445c042610 o )  ) ) ( type_3bdf746b_7fee_4480_9d64_eeb0ddee8491_Class41 ( obj_96d63d76_3a0f_42ed_a04c_e5445c042610 o )  ) ) ( type_3bdf746b_7fee_4480_9d64_eeb0ddee8491_Class2 ( obj_96d63d76_3a0f_42ed_a04c_e5445c042610 o )  ) )):named c27))
(assert (! (exists ((o Int)) ( type_3bdf746b_7fee_4480_9d64_eeb0ddee8491_Class34 ( obj_96d63d76_3a0f_42ed_a04c_e5445c042610 o )  ) ):named c28))
(assert (! (exists ((o Int)) (and ( type_3bdf746b_7fee_4480_9d64_eeb0ddee8491_Class35 ( obj_96d63d76_3a0f_42ed_a04c_e5445c042610 o )  )  ( type_3bdf746b_7fee_4480_9d64_eeb0ddee8491_Class2 ( obj_96d63d76_3a0f_42ed_a04c_e5445c042610 o )  ) )):named c29))
(assert (! (exists ((o Int)) ( type_3bdf746b_7fee_4480_9d64_eeb0ddee8491_Class36 ( obj_96d63d76_3a0f_42ed_a04c_e5445c042610 o )  ) ):named c30))
(assert (! (exists ((o Int)) ( type_3bdf746b_7fee_4480_9d64_eeb0ddee8491_Class37 ( obj_96d63d76_3a0f_42ed_a04c_e5445c042610 o )  ) ):named c31))
(assert (! (exists ((o Int)) (and ( type_3bdf746b_7fee_4480_9d64_eeb0ddee8491_Class38 ( obj_96d63d76_3a0f_42ed_a04c_e5445c042610 o )  )  ( type_3bdf746b_7fee_4480_9d64_eeb0ddee8491_Class2 ( obj_96d63d76_3a0f_42ed_a04c_e5445c042610 o )  ) )):named c32))
(assert (! (exists ((o Int)) ( type_3bdf746b_7fee_4480_9d64_eeb0ddee8491_Class39 ( obj_96d63d76_3a0f_42ed_a04c_e5445c042610 o )  ) ):named c33))
(assert (! (exists ((o Int)) (and (and (and (and (and (and ( type_3bdf746b_7fee_4480_9d64_eeb0ddee8491_Class4 ( obj_96d63d76_3a0f_42ed_a04c_e5445c042610 o )  )  ( type_3bdf746b_7fee_4480_9d64_eeb0ddee8491_Class33 ( obj_96d63d76_3a0f_42ed_a04c_e5445c042610 o )  ) ) ( type_3bdf746b_7fee_4480_9d64_eeb0ddee8491_Class13 ( obj_96d63d76_3a0f_42ed_a04c_e5445c042610 o )  ) ) ( type_3bdf746b_7fee_4480_9d64_eeb0ddee8491_Class16 ( obj_96d63d76_3a0f_42ed_a04c_e5445c042610 o )  ) ) ( type_3bdf746b_7fee_4480_9d64_eeb0ddee8491_Class15 ( obj_96d63d76_3a0f_42ed_a04c_e5445c042610 o )  ) ) ( type_3bdf746b_7fee_4480_9d64_eeb0ddee8491_Class41 ( obj_96d63d76_3a0f_42ed_a04c_e5445c042610 o )  ) ) ( type_3bdf746b_7fee_4480_9d64_eeb0ddee8491_Class2 ( obj_96d63d76_3a0f_42ed_a04c_e5445c042610 o )  ) )):named c34))
(assert (! (exists ((o Int)) (and (and (and ( type_3bdf746b_7fee_4480_9d64_eeb0ddee8491_Class40 ( obj_96d63d76_3a0f_42ed_a04c_e5445c042610 o )  )  ( type_3bdf746b_7fee_4480_9d64_eeb0ddee8491_Class21 ( obj_96d63d76_3a0f_42ed_a04c_e5445c042610 o )  ) ) ( type_3bdf746b_7fee_4480_9d64_eeb0ddee8491_Class2 ( obj_96d63d76_3a0f_42ed_a04c_e5445c042610 o )  ) ) ( type_3bdf746b_7fee_4480_9d64_eeb0ddee8491_Class20 ( obj_96d63d76_3a0f_42ed_a04c_e5445c042610 o )  ) )):named c35))
(assert (! (exists ((o Int)) (and (and (and ( type_3bdf746b_7fee_4480_9d64_eeb0ddee8491_Class41 ( obj_96d63d76_3a0f_42ed_a04c_e5445c042610 o )  )  ( type_3bdf746b_7fee_4480_9d64_eeb0ddee8491_Class16 ( obj_96d63d76_3a0f_42ed_a04c_e5445c042610 o )  ) ) ( type_3bdf746b_7fee_4480_9d64_eeb0ddee8491_Class15 ( obj_96d63d76_3a0f_42ed_a04c_e5445c042610 o )  ) ) ( type_3bdf746b_7fee_4480_9d64_eeb0ddee8491_Class2 ( obj_96d63d76_3a0f_42ed_a04c_e5445c042610 o )  ) )):named c36))
(assert (! (exists ((o Int)) (and (and (and ( type_3bdf746b_7fee_4480_9d64_eeb0ddee8491_Class42 ( obj_96d63d76_3a0f_42ed_a04c_e5445c042610 o )  )  ( type_3bdf746b_7fee_4480_9d64_eeb0ddee8491_Class22 ( obj_96d63d76_3a0f_42ed_a04c_e5445c042610 o )  ) ) ( type_3bdf746b_7fee_4480_9d64_eeb0ddee8491_Class35 ( obj_96d63d76_3a0f_42ed_a04c_e5445c042610 o )  ) ) ( type_3bdf746b_7fee_4480_9d64_eeb0ddee8491_Class2 ( obj_96d63d76_3a0f_42ed_a04c_e5445c042610 o )  ) )):named c37))
(assert (! (exists ((o Int)) ( type_3bdf746b_7fee_4480_9d64_eeb0ddee8491_Class43 ( obj_96d63d76_3a0f_42ed_a04c_e5445c042610 o )  ) ):named c38))
(assert (! (exists ((o Int)) (and (and (and (and (and (and ( type_3bdf746b_7fee_4480_9d64_eeb0ddee8491_Class44 ( obj_96d63d76_3a0f_42ed_a04c_e5445c042610 o )  )  ( type_3bdf746b_7fee_4480_9d64_eeb0ddee8491_Class33 ( obj_96d63d76_3a0f_42ed_a04c_e5445c042610 o )  ) ) ( type_3bdf746b_7fee_4480_9d64_eeb0ddee8491_Class13 ( obj_96d63d76_3a0f_42ed_a04c_e5445c042610 o )  ) ) ( type_3bdf746b_7fee_4480_9d64_eeb0ddee8491_Class16 ( obj_96d63d76_3a0f_42ed_a04c_e5445c042610 o )  ) ) ( type_3bdf746b_7fee_4480_9d64_eeb0ddee8491_Class15 ( obj_96d63d76_3a0f_42ed_a04c_e5445c042610 o )  ) ) ( type_3bdf746b_7fee_4480_9d64_eeb0ddee8491_Class41 ( obj_96d63d76_3a0f_42ed_a04c_e5445c042610 o )  ) ) ( type_3bdf746b_7fee_4480_9d64_eeb0ddee8491_Class2 ( obj_96d63d76_3a0f_42ed_a04c_e5445c042610 o )  ) )):named c39))
(assert (! (exists ((o Int)) ( type_3bdf746b_7fee_4480_9d64_eeb0ddee8491_Class45 ( obj_96d63d76_3a0f_42ed_a04c_e5445c042610 o )  ) ):named c40))
(assert (! (exists ((o Int)) ( type_3bdf746b_7fee_4480_9d64_eeb0ddee8491_Class5 ( obj_96d63d76_3a0f_42ed_a04c_e5445c042610 o )  ) ):named c41))
(assert (! (exists ((o Int)) (and (and (and (and ( type_3bdf746b_7fee_4480_9d64_eeb0ddee8491_Class6 ( obj_96d63d76_3a0f_42ed_a04c_e5445c042610 o )  )  ( type_3bdf746b_7fee_4480_9d64_eeb0ddee8491_Class22 ( obj_96d63d76_3a0f_42ed_a04c_e5445c042610 o )  ) ) ( type_3bdf746b_7fee_4480_9d64_eeb0ddee8491_Class35 ( obj_96d63d76_3a0f_42ed_a04c_e5445c042610 o )  ) ) ( type_3bdf746b_7fee_4480_9d64_eeb0ddee8491_Class2 ( obj_96d63d76_3a0f_42ed_a04c_e5445c042610 o )  ) ) ( type_3bdf746b_7fee_4480_9d64_eeb0ddee8491_Class42 ( obj_96d63d76_3a0f_42ed_a04c_e5445c042610 o )  ) )):named c42))
(assert (! (exists ((o Int)) ( type_3bdf746b_7fee_4480_9d64_eeb0ddee8491_Class7 ( obj_96d63d76_3a0f_42ed_a04c_e5445c042610 o )  ) ):named c43))
(assert (! (exists ((o Int)) (and (and (and (and (and ( type_3bdf746b_7fee_4480_9d64_eeb0ddee8491_Class8 ( obj_96d63d76_3a0f_42ed_a04c_e5445c042610 o )  )  ( type_3bdf746b_7fee_4480_9d64_eeb0ddee8491_Class16 ( obj_96d63d76_3a0f_42ed_a04c_e5445c042610 o )  ) ) ( type_3bdf746b_7fee_4480_9d64_eeb0ddee8491_Class15 ( obj_96d63d76_3a0f_42ed_a04c_e5445c042610 o )  ) ) ( type_3bdf746b_7fee_4480_9d64_eeb0ddee8491_Class41 ( obj_96d63d76_3a0f_42ed_a04c_e5445c042610 o )  ) ) ( type_3bdf746b_7fee_4480_9d64_eeb0ddee8491_Class10 ( obj_96d63d76_3a0f_42ed_a04c_e5445c042610 o )  ) ) ( type_3bdf746b_7fee_4480_9d64_eeb0ddee8491_Class2 ( obj_96d63d76_3a0f_42ed_a04c_e5445c042610 o )  ) )):named c44))
(assert (! (exists ((o Int)) (and (and (and (and (and (and (and ( type_3bdf746b_7fee_4480_9d64_eeb0ddee8491_Class9 ( obj_96d63d76_3a0f_42ed_a04c_e5445c042610 o )  )  ( type_3bdf746b_7fee_4480_9d64_eeb0ddee8491_Class22 ( obj_96d63d76_3a0f_42ed_a04c_e5445c042610 o )  ) ) ( type_3bdf746b_7fee_4480_9d64_eeb0ddee8491_Class35 ( obj_96d63d76_3a0f_42ed_a04c_e5445c042610 o )  ) ) ( type_3bdf746b_7fee_4480_9d64_eeb0ddee8491_Class16 ( obj_96d63d76_3a0f_42ed_a04c_e5445c042610 o )  ) ) ( type_3bdf746b_7fee_4480_9d64_eeb0ddee8491_Class15 ( obj_96d63d76_3a0f_42ed_a04c_e5445c042610 o )  ) ) ( type_3bdf746b_7fee_4480_9d64_eeb0ddee8491_Class0 ( obj_96d63d76_3a0f_42ed_a04c_e5445c042610 o )  ) ) ( type_3bdf746b_7fee_4480_9d64_eeb0ddee8491_Class41 ( obj_96d63d76_3a0f_42ed_a04c_e5445c042610 o )  ) ) ( type_3bdf746b_7fee_4480_9d64_eeb0ddee8491_Class2 ( obj_96d63d76_3a0f_42ed_a04c_e5445c042610 o )  ) )):named c45))

 ;end of formula 